p cnf 8 48
1 2 0 
-1 -2 0 
3 4 0 
-3 -4 0 
5 6 0 
-5 -6 0 
7 8 0 
-7 -8 0 
-1 -3 -5 0 
-1 -3 -7 0 
-1 -5 -3 0 
-1 -5 -7 0 
-1 -7 -3 0 
-1 -7 -5 0 
-3 -5 -1 0 
-3 -5 -7 0 
-3 -7 -1 0 
-3 -7 -5 0 
-5 -7 -1 0 
-5 -7 -3 0 
3 5 7 0 
1 5 7 0 
1 3 7 0 
1 3 5 0 
-2 -4 -6 0 
-2 -4 -8 0 
-2 -6 -4 0 
-2 -6 -8 0 
-2 -8 -4 0 
-2 -8 -6 0 
-4 -6 -2 0 
-4 -6 -8 0 
-4 -8 -2 0 
-4 -8 -6 0 
-6 -8 -2 0 
-6 -8 -4 0 
4 6 8 0 
2 6 8 0 
2 4 8 0 
2 4 6 0 
-1 3 0 
-2 6 0 
-3 1 5 0 
-4 8 0 
-5 3 7 0 
-6 2 0 
-7 5 0 
-8 4 0 